10 10
23 19
14 13 2 2
0 0 1 1
11 10 2 3
19 7 3 4
14 3 1 5
19 20 2 4
13 0 1 5
15 1 1 1
1 5 3 3
2 9 3 4
1 17 2 4
14 11 2 2
7 14 1 2
18 15 3 2
3 17 1 3
19 17 3 2
20 12 1 2
12 6 3 4
10 6 1 4
19 18 2 5
7 16 2 4
8 0 2 5
12 5 1 1
